RAW/XT/fspd-mid/X-n125-k30.vrp_seed-8.out
50122	127.708	157.676
