RAW/XT/fspd-mid/X-n125-k30.vrp_seed-8.sol
Route #1: 17 78 28 59 70 6 34 2 124 50
Route #2: 75 35
Route #3: 121 54 72 41 107 20
Route #4: 31 3
Route #5: 102 52 74 97 14
Route #6: 61 83 122
Route #7: 96 38 60
Route #8: 51 105 89 88 115
Route #9: 93 26
Route #10: 33 53 69
Route #11: 48 91 110 73
Route #12: 32 8 10 76
Route #13: 98 71 104 65 80
Route #14: 24 23 66 116 15
Route #15: 94 58 4 7 77 101 95
Route #16: 18 100 99
Route #17: 103 12
Route #18: 84 64 29 119 45
Route #19: 106 43 16 81 42 123
Route #20: 113 39 120 57
Route #21: 5 37 67
Route #22: 82 49 56
Route #23: 21 112 90 44
Route #24: 111 86
Route #25: 92 87 114 11 19 9 13
Route #26: 108 27 1 46 63 79 36 55 30
Route #27: 68 47 22 40 118 25 109 117 85 62
Cost 50122.000000